9741.02,62.44,77.45
8813.52,69.01,85.6
9642.66,63.08,78.24
8692.35,69.97,86.8
8874.61,68.53,85.02
9150.52,66.47,82.45
9509.38,63.96,79.34
9204.05,66.08,81.97
9303.29,65.38,81.1
9389.05,64.78,80.36
9018.65,67.44,83.66
8936.5,68.06,84.43
10040.31,60.58,75.15
9342.57,65.1,80.76
10048.2,60.53,75.09
8651.18,70.3,87.21
9634.92,63.13,78.31
8785.52,69.23,85.88
9155.62,66.43,82.41
9116.83,66.71,82.76
